p cnf 12 50 
-5 6 -12 0
3 -4 -11 0
11 8 -6 0
5 6 2 0
-2 -3 -7 0
5 -10 9 0
2 10 -6 0
-11 7 -5 0
-8 -12 7 0
4 -12 -6 0
5 -6 3 0
4 -7 12 0
-12 9 5 0
12 -4 -8 0
12 1 11 0
-3 9 -5 0
11 -4 -7 0
-3 7 -8 0
6 -11 2 0
-12 -11 -4 0
10 5 -4 0
-3 -12 -5 0
8 -9 -12 0
-7 11 -5 0
2 4 -11 0
7 3 -11 0
11 -12 -5 0
3 8 -6 0
3 -7 -9 0
3 7 5 0
-5 -3 7 0
3 -5 -6 0
2 7 3 0
9 -6 -12 0
-2 11 -6 0
12 -7 -6 0
-8 -5 -9 0
5 -3 -4 0
-8 12 -9 0
7 1 12 0
8 -7 -9 0
4 8 -11 0
3 -11 7 0
12 10 3 0
8 10 4 0
-2 -9 6 0
-7 6 9 0
-5 -10 -7 0
-2 9 -3 0
9 11 -8 0
